HUN,8,6,693
3,27,0,22,2,24,4,24,5,23,1,28
0,29,3,30,1,27,2,25,5,25,4,27
5,27,4,27,2,27,3,22,1,21,0,30
2,24,1,24,3,30,0,27,4,24,5,24
5,27,2,25,3,23,0,25,4,29,1,21
5,27,0,29,4,27,2,24,1,28,3,22
3,25,2,22,0,26,1,30,4,25,5,24
0,30,5,25,1,21,3,29,2,23,4,24
